NAME: tsp45_25
COMMENT: 45-tsp problem (Padberg/Rinaldi)
TYPE: TSP
DIMENSION: 45
EDGE_WEIGHT_TYPE : EUC_2D
NODE_COORD_SECTION
1 12 26
2 39 30
3 22 22
4 20 27
5 34 37
6 26 40
7 23 6
8 17 31
9 25 6
10 34 37
11 20 40
12 37 34
13 35 39
14 5 5
15 39 33
16 17 31
17 23 16
18 35 31
19 30 35
20 17 13
21 12 40
22 11 19
23 30 31
24 32 5
25 9 12
26 15 12
27 19 34
28 25 30
29 5 17
30 8 10
31 31 37
32 39 36
33 32 28
34 18 15
35 14 5
36 2 4
37 17 28
38 15 16
39 13 10
40 17 35
41 1 10
42 15 20
43 28 10
44 25 10
45 30 10
